p tw 121 18151 2 
1 3 
1 4 
1 5 
1 6 
1 7 
1 8 
1 9 
1 10 
1 11 
1 12 
1 16 
1 23 
1 26 
1 34 
1 36 
1 45 
1 46 
1 56 
1 66 
1 67 
1 75 
1 78 
1 87 
1 89 
1 94 
1 100 
1 107 
1 111 
1 117 
2 3 
2 4 
2 5 
2 6 
2 7 
2 8 
2 9 
2 10 
2 11 
2 13 
2 19 
2 24 
2 29 
2 35 
2 39 
2 46 
2 47 
2 57 
2 64 
2 68 
2 77 
2 79 
2 82 
2 89 
2 90 
2 101 
2 103 
2 112 
2 120 
3 4 
3 5 
3 6 
3 7 
3 8 
3 9 
3 10 
3 11 
3 14 
3 21 
3 25 
3 33 
3 36 
3 41 
3 47 
3 51 
3 57 
3 58 
3 67 
3 69 
3 80 
3 81 
3 91 
3 97 
3 102 
3 105 
3 113 
3 115 
4 5 
4 6 
4 7 
4 8 
4 9 
4 10 
4 11 
4 14 
4 15 
4 26 
4 31 
4 35 
4 37 
4 48 
4 55 
4 59 
4 63 
4 70 
4 73 
4 78 
4 81 
4 92 
4 98 
4 103 
4 104 
4 114 
4 116 
5 6 
5 7 
5 8 
5 9 
5 10 
5 11 
5 12 
5 16 
5 24 
5 27 
5 38 
5 44 
5 49 
5 54 
5 60 
5 62 
5 71 
5 72 
5 82 
5 85 
5 91 
5 93 
5 104 
5 108 
5 114 
5 115 
6 7 
6 8 
6 9 
6 10 
6 11 
6 17 
6 22 
6 27 
6 28 
6 39 
6 42 
6 50 
6 52 
6 56 
6 61 
6 72 
6 76 
6 79 
6 83 
6 92 
6 94 
6 105 
6 106 
6 113 
6 116 
7 8 
7 9 
7 10 
7 11 
7 13 
7 18 
7 23 
7 29 
7 40 
7 43 
7 49 
7 51 
7 59 
7 62 
7 69 
7 73 
7 83 
7 84 
7 95 
7 96 
7 106 
7 110 
7 117 
7 119 
8 9 
8 10 
8 11 
8 17 
8 19 
8 30 
8 32 
8 37 
8 41 
8 52 
8 53 
8 58 
8 63 
8 71 
8 74 
8 85 
8 88 
8 95 
8 96 
8 101 
8 107 
8 111 
8 118 
9 10 
9 11 
9 18 
9 20 
9 28 
9 31 
9 38 
9 42 
9 48 
9 53 
9 64 
9 65 
9 68 
9 75 
9 80 
9 86 
9 97 
9 99 
9 100 
9 108 
9 118 
9 119 
10 11 
10 20 
10 21 
10 30 
10 32 
10 34 
10 43 
10 50 
10 54 
10 60 
10 65 
10 70 
10 76 
10 84 
10 87 
10 90 
10 98 
10 102 
10 109 
10 120 
10 121 
11 15 
11 22 
11 25 
11 33 
11 40 
11 44 
11 45 
11 55 
11 61 
11 66 
11 74 
11 77 
11 86 
11 88 
11 93 
11 99 
11 109 
11 110 
11 112 
11 121 
12 13 
12 14 
12 15 
12 16 
12 17 
12 18 
12 19 
12 20 
12 21 
12 22 
12 23 
12 24 
12 34 
12 44 
12 45 
12 54 
12 56 
12 62 
12 67 
12 72 
12 78 
12 85 
12 89 
12 91 
12 100 
12 108 
12 111 
12 114 
13 14 
13 15 
13 16 
13 17 
13 18 
13 19 
13 20 
13 21 
13 22 
13 23 
13 24 
13 35 
13 43 
13 46 
13 49 
13 57 
13 59 
13 68 
13 69 
13 79 
13 83 
13 90 
13 96 
13 101 
13 110 
13 112 
13 119 
14 15 
14 16 
14 17 
14 18 
14 19 
14 20 
14 21 
14 22 
14 25 
14 31 
14 35 
14 36 
14 47 
14 55 
14 58 
14 63 
14 69 
14 73 
14 78 
14 80 
14 91 
14 98 
14 102 
14 104 
14 113 
14 116 
15 16 
15 17 
15 18 
15 19 
15 20 
15 21 
15 22 
15 25 
15 26 
15 37 
15 40 
15 45 
15 48 
15 59 
15 61 
15 70 
15 74 
15 81 
15 86 
15 92 
15 93 
15 103 
15 109 
15 112 
15 114 
16 17 
16 18 
16 19 
16 20 
16 21 
16 22 
16 26 
16 27 
16 36 
16 38 
16 46 
16 49 
16 60 
16 66 
16 71 
16 75 
16 82 
16 87 
16 93 
16 94 
16 104 
16 107 
16 115 
16 117 
17 18 
17 19 
17 20 
17 21 
17 22 
17 28 
17 32 
17 37 
17 39 
17 50 
17 53 
17 58 
17 61 
17 71 
17 72 
17 83 
17 88 
17 94 
17 95 
17 101 
17 105 
17 111 
17 116 
18 19 
18 20 
18 21 
18 22 
18 28 
18 29 
18 38 
18 40 
18 48 
18 51 
18 62 
18 65 
18 68 
18 73 
18 80 
18 84 
18 95 
18 99 
18 100 
18 106 
18 117 
18 118 
19 20 
19 21 
19 22 
19 29 
19 30 
19 39 
19 41 
19 47 
19 52 
19 63 
19 64 
19 74 
19 77 
19 82 
19 85 
19 89 
19 96 
19 103 
19 107 
19 118 
19 120 
20 21 
20 22 
20 30 
20 31 
20 34 
20 42 
20 50 
20 53 
20 60 
20 64 
20 70 
20 75 
20 84 
20 86 
20 90 
20 97 
20 102 
20 108 
20 119 
20 121 
21 22 
21 32 
21 33 
21 41 
21 43 
21 51 
21 54 
21 57 
21 65 
21 67 
21 76 
21 81 
21 87 
21 97 
21 98 
21 105 
21 109 
21 115 
21 120 
22 27 
22 33 
22 42 
22 44 
22 52 
22 55 
22 56 
22 66 
22 76 
22 77 
22 79 
22 88 
22 92 
22 99 
22 106 
22 110 
22 113 
22 121 
23 24 
23 25 
23 26 
23 27 
23 28 
23 29 
23 30 
23 31 
23 32 
23 33 
23 34 
23 43 
23 45 
23 49 
23 56 
23 59 
23 67 
23 69 
23 78 
23 83 
23 89 
23 96 
23 100 
23 110 
23 111 
23 119 
24 25 
24 26 
24 27 
24 28 
24 29 
24 30 
24 31 
24 32 
24 33 
24 35 
24 44 
24 46 
24 54 
24 57 
24 62 
24 68 
24 72 
24 79 
24 85 
24 90 
24 91 
24 101 
24 108 
24 112 
24 114 
25 26 
25 27 
25 28 
25 29 
25 30 
25 31 
25 32 
25 33 
25 36 
25 40 
25 45 
25 47 
25 58 
25 61 
25 69 
25 74 
25 80 
25 86 
25 91 
25 93 
25 102 
25 109 
25 112 
25 113 
26 27 
26 28 
26 29 
26 30 
26 31 
26 32 
26 33 
26 36 
26 37 
26 46 
26 48 
26 59 
26 66 
26 70 
26 75 
26 81 
26 87 
26 92 
26 94 
26 103 
26 107 
26 114 
26 117 
27 28 
27 29 
27 30 
27 31 
27 32 
27 33 
27 38 
27 42 
27 49 
27 52 
27 56 
27 60 
27 71 
27 76 
27 79 
27 82 
27 92 
27 93 
27 104 
27 106 
27 113 
27 115 
28 29 
28 30 
28 31 
28 32 
28 33 
28 38 
28 39 
28 48 
28 50 
28 61 
28 65 
28 68 
28 72 
28 80 
28 83 
28 94 
28 99 
28 100 
28 105 
28 116 
28 118 
29 30 
29 31 
29 32 
29 33 
29 39 
29 40 
29 47 
29 51 
29 62 
29 64 
29 73 
29 77 
29 82 
29 84 
29 89 
29 95 
29 103 
29 106 
29 117 
29 120 
30 31 
30 32 
30 33 
30 34 
30 41 
30 50 
30 52 
30 60 
30 63 
30 70 
30 74 
30 84 
30 85 
30 90 
30 96 
30 102 
30 107 
30 118 
30 121 
31 32 
31 33 
31 35 
31 42 
31 53 
31 55 
31 63 
31 64 
31 73 
31 75 
31 78 
31 86 
31 97 
31 98 
31 104 
31 108 
31 116 
31 119 
32 33 
32 37 
32 43 
32 53 
32 54 
32 58 
32 65 
32 71 
32 76 
32 87 
32 88 
32 95 
32 98 
32 101 
32 109 
32 111 
32 120 
33 41 
33 44 
33 51 
33 55 
33 57 
33 66 
33 67 
33 77 
33 81 
33 88 
33 97 
33 99 
33 105 
33 110 
33 115 
33 121 
34 35 
34 36 
34 37 
34 38 
34 39 
34 40 
34 41 
34 42 
34 43 
34 44 
34 45 
34 50 
34 56 
34 60 
34 67 
34 70 
34 78 
34 84 
34 89 
34 90 
34 100 
34 102 
34 111 
34 121 
35 36 
35 37 
35 38 
35 39 
35 40 
35 41 
35 42 
35 43 
35 44 
35 46 
35 55 
35 57 
35 63 
35 68 
35 73 
35 78 
35 79 
35 90 
35 98 
35 101 
35 104 
35 112 
35 116 
36 37 
36 38 
36 39 
36 40 
36 41 
36 42 
36 43 
36 44 
36 46 
36 47 
36 58 
36 66 
36 69 
36 75 
36 80 
36 87 
36 91 
36 94 
36 102 
36 107 
36 113 
36 117 
37 38 
37 39 
37 40 
37 41 
37 42 
37 43 
37 44 
37 48 
37 53 
37 58 
37 59 
37 70 
37 71 
37 81 
37 88 
37 92 
37 95 
37 101 
37 103 
37 111 
37 114 
38 39 
38 40 
38 41 
38 42 
38 43 
38 44 
38 48 
38 49 
38 60 
38 65 
38 68 
38 71 
38 80 
38 82 
38 93 
38 99 
38 100 
38 104 
38 115 
38 118 
39 40 
39 41 
39 42 
39 43 
39 44 
39 47 
39 50 
39 61 
39 64 
39 72 
39 77 
39 82 
39 83 
39 89 
39 94 
39 103 
39 105 
39 116 
39 120 
40 41 
40 42 
40 43 
40 44 
40 45 
40 51 
40 61 
40 62 
40 73 
40 74 
40 84 
40 86 
40 93 
40 95 
40 106 
40 109 
40 112 
40 117 
41 42 
41 43 
41 44 
41 51 
41 52 
41 57 
41 63 
41 67 
41 74 
41 81 
41 85 
41 96 
41 97 
41 105 
41 107 
41 115 
41 118 
42 43 
42 44 
42 52 
42 53 
42 56 
42 64 
42 75 
42 76 
42 79 
42 86 
42 92 
42 97 
42 106 
42 108 
42 113 
42 119 
43 44 
43 49 
43 54 
43 59 
43 65 
43 69 
43 76 
43 83 
43 87 
43 96 
43 98 
43 109 
43 110 
43 119 
43 120 
44 54 
44 55 
44 62 
44 66 
44 72 
44 77 
44 85 
44 88 
44 91 
44 99 
44 108 
44 110 
44 114 
44 121 
45 46 
45 47 
45 48 
45 49 
45 50 
45 51 
45 52 
45 53 
45 54 
45 55 
45 56 
45 61 
45 67 
45 74 
45 78 
45 86 
45 89 
45 93 
45 100 
45 109 
45 111 
45 112 
46 47 
46 48 
46 49 
46 50 
46 51 
46 52 
46 53 
46 54 
46 55 
46 57 
46 66 
46 68 
46 75 
46 79 
46 87 
46 90 
46 94 
46 101 
46 107 
46 112 
46 117 
47 48 
47 49 
47 50 
47 51 
47 52 
47 53 
47 54 
47 55 
47 58 
47 64 
47 69 
47 77 
47 80 
47 82 
47 89 
47 91 
47 102 
47 103 
47 113 
47 120 
48 49 
48 50 
48 51 
48 52 
48 53 
48 54 
48 55 
48 59 
48 65 
48 68 
48 70 
48 80 
48 81 
48 92 
48 99 
48 100 
48 103 
48 114 
48 118 
49 50 
49 51 
49 52 
49 53 
49 54 
49 55 
49 59 
49 60 
49 69 
49 71 
49 82 
49 83 
49 93 
49 96 
49 104 
49 110 
49 115 
49 119 
50 51 
50 52 
50 53 
50 54 
50 55 
50 60 
50 61 
50 70 
50 72 
50 83 
50 84 
50 90 
50 94 
50 102 
50 105 
50 116 
50 121 
51 52 
51 53 
51 54 
51 55 
51 57 
51 62 
51 67 
51 73 
51 81 
51 84 
51 95 
51 97 
51 105 
51 106 
51 115 
51 117 
52 53 
52 54 
52 55 
52 56 
52 63 
52 74 
52 76 
52 79 
52 85 
52 92 
52 96 
52 106 
52 107 
52 113 
52 118 
53 54 
53 55 
53 58 
53 64 
53 71 
53 75 
53 86 
53 88 
53 95 
53 97 
53 101 
53 108 
53 111 
53 119 
54 55 
54 62 
54 65 
54 72 
54 76 
54 85 
54 87 
54 91 
54 98 
54 108 
54 109 
54 114 
54 120 
55 63 
55 66 
55 73 
55 77 
55 78 
55 88 
55 98 
55 99 
55 104 
55 110 
55 116 
55 121 
56 57 
56 58 
56 59 
56 60 
56 61 
56 62 
56 63 
56 64 
56 65 
56 66 
56 67 
56 76 
56 78 
56 79 
56 89 
56 92 
56 100 
56 106 
56 111 
56 113 
57 58 
57 59 
57 60 
57 61 
57 62 
57 63 
57 64 
57 65 
57 66 
57 67 
57 68 
57 79 
57 81 
57 90 
57 97 
57 101 
57 105 
57 112 
57 115 
58 59 
58 60 
58 61 
58 62 
58 63 
58 64 
58 65 
58 66 
58 69 
58 71 
58 80 
58 88 
58 91 
58 95 
58 101 
58 102 
58 111 
58 113 
59 60 
59 61 
59 62 
59 63 
59 64 
59 65 
59 66 
59 69 
59 70 
59 81 
59 83 
59 92 
59 96 
59 103 
59 110 
59 114 
59 119 
60 61 
60 62 
60 63 
60 64 
60 65 
60 66 
60 70 
60 71 
60 82 
60 84 
60 90 
60 93 
60 102 
60 104 
60 115 
60 121 
61 62 
61 63 
61 64 
61 65 
61 66 
61 72 
61 74 
61 83 
61 86 
61 93 
61 94 
61 105 
61 109 
61 112 
61 116 
62 63 
62 64 
62 65 
62 66 
62 72 
62 73 
62 84 
62 85 
62 91 
62 95 
62 106 
62 108 
62 114 
62 117 
63 64 
63 65 
63 66 
63 73 
63 74 
63 78 
63 85 
63 96 
63 98 
63 104 
63 107 
63 116 
63 118 
64 65 
64 66 
64 75 
64 77 
64 82 
64 86 
64 89 
64 97 
64 103 
64 108 
64 119 
64 120 
65 66 
65 68 
65 76 
65 80 
65 87 
65 98 
65 99 
65 100 
65 109 
65 118 
65 120 
66 75 
66 77 
66 87 
66 88 
66 94 
66 99 
66 107 
66 110 
66 117 
66 121 
67 68 
67 69 
67 70 
67 71 
67 72 
67 73 
67 74 
67 75 
67 76 
67 77 
67 78 
67 81 
67 89 
67 97 
67 100 
67 105 
67 111 
67 115 
68 69 
68 70 
68 71 
68 72 
68 73 
68 74 
68 75 
68 76 
68 77 
68 79 
68 80 
68 90 
68 99 
68 100 
68 101 
68 112 
68 118 
69 70 
69 71 
69 72 
69 73 
69 74 
69 75 
69 76 
69 77 
69 80 
69 83 
69 91 
69 96 
69 102 
69 110 
69 113 
69 119 
70 71 
70 72 
70 73 
70 74 
70 75 
70 76 
70 77 
70 81 
70 84 
70 90 
70 92 
70 102 
70 103 
70 114 
70 121 
71 72 
71 73 
71 74 
71 75 
71 76 
71 77 
71 82 
71 88 
71 93 
71 95 
71 101 
71 104 
71 111 
71 115 
72 73 
72 74 
72 75 
72 76 
72 77 
72 83 
72 85 
72 91 
72 94 
72 105 
72 108 
72 114 
72 116 
73 74 
73 75 
73 76 
73 77 
73 78 
73 84 
73 95 
73 98 
73 104 
73 106 
73 116 
73 117 
74 75 
74 76 
74 77 
74 85 
74 86 
74 93 
74 96 
74 107 
74 109 
74 112 
74 118 
75 76 
75 77 
75 86 
75 87 
75 94 
75 97 
75 107 
75 108 
75 117 
75 119 
76 77 
76 79 
76 87 
76 92 
76 98 
76 106 
76 109 
76 113 
76 120 
77 82 
77 88 
77 89 
77 99 
77 103 
77 110 
77 120 
77 121 
78 79 
78 80 
78 81 
78 82 
78 83 
78 84 
78 85 
78 86 
78 87 
78 88 
78 89 
78 98 
78 100 
78 104 
78 111 
78 116 
79 80 
79 81 
79 82 
79 83 
79 84 
79 85 
79 86 
79 87 
79 88 
79 90 
79 92 
79 101 
79 106 
79 112 
79 113 
80 81 
80 82 
80 83 
80 84 
80 85 
80 86 
80 87 
80 88 
80 91 
80 99 
80 100 
80 102 
80 113 
80 118 
81 82 
81 83 
81 84 
81 85 
81 86 
81 87 
81 88 
81 92 
81 97 
81 103 
81 105 
81 114 
81 115 
82 83 
82 84 
82 85 
82 86 
82 87 
82 88 
82 89 
82 93 
82 103 
82 104 
82 115 
82 120 
83 84 
83 85 
83 86 
83 87 
83 88 
83 94 
83 96 
83 105 
83 110 
83 116 
83 119 
84 85 
84 86 
84 87 
84 88 
84 90 
84 95 
84 102 
84 106 
84 117 
84 121 
85 86 
85 87 
85 88 
85 91 
85 96 
85 107 
85 108 
85 114 
85 118 
86 87 
86 88 
86 93 
86 97 
86 108 
86 109 
86 112 
86 119 
87 88 
87 94 
87 98 
87 107 
87 109 
87 117 
87 120 
88 95 
88 99 
88 101 
88 110 
88 111 
88 121 
89 90 
89 91 
89 92 
89 93 
89 94 
89 95 
89 96 
89 97 
89 98 
89 99 
89 100 
89 103 
89 111 
89 120 
90 91 
90 92 
90 93 
90 94 
90 95 
90 96 
90 97 
90 98 
90 99 
90 101 
90 102 
90 112 
90 121 
91 92 
91 93 
91 94 
91 95 
91 96 
91 97 
91 98 
91 99 
91 102 
91 108 
91 113 
91 114 
92 93 
92 94 
92 95 
92 96 
92 97 
92 98 
92 99 
92 103 
92 106 
92 113 
92 114 
93 94 
93 95 
93 96 
93 97 
93 98 
93 99 
93 104 
93 109 
93 112 
93 115 
94 95 
94 96 
94 97 
94 98 
94 99 
94 105 
94 107 
94 116 
94 117 
95 96 
95 97 
95 98 
95 99 
95 101 
95 106 
95 111 
95 117 
96 97 
96 98 
96 99 
96 107 
96 110 
96 118 
96 119 
97 98 
97 99 
97 105 
97 108 
97 115 
97 119 
98 99 
98 104 
98 109 
98 116 
98 120 
99 100 
99 110 
99 118 
99 121 
100 101 
100 102 
100 103 
100 104 
100 105 
100 106 
100 107 
100 108 
100 109 
100 110 
100 111 
100 118 
101 102 
101 103 
101 104 
101 105 
101 106 
101 107 
101 108 
101 109 
101 110 
101 111 
101 112 
102 103 
102 104 
102 105 
102 106 
102 107 
102 108 
102 109 
102 110 
102 113 
102 121 
103 104 
103 105 
103 106 
103 107 
103 108 
103 109 
103 110 
103 114 
103 120 
104 105 
104 106 
104 107 
104 108 
104 109 
104 110 
104 115 
104 116 
105 106 
105 107 
105 108 
105 109 
105 110 
105 115 
105 116 
106 107 
106 108 
106 109 
106 110 
106 113 
106 117 
107 108 
107 109 
107 110 
107 117 
107 118 
108 109 
108 110 
108 114 
108 119 
109 110 
109 112 
109 120 
110 119 
110 121 
111 112 
111 113 
111 114 
111 115 
111 116 
111 117 
111 118 
111 119 
111 120 
111 121 
112 113 
112 114 
112 115 
112 116 
112 117 
112 118 
112 119 
112 120 
112 121 
113 114 
113 115 
113 116 
113 117 
113 118 
113 119 
113 120 
113 121 
114 115 
114 116 
114 117 
114 118 
114 119 
114 120 
114 121 
115 116 
115 117 
115 118 
115 119 
115 120 
115 121 
116 117 
116 118 
116 119 
116 120 
116 121 
117 118 
117 119 
117 120 
117 121 
118 119 
118 120 
118 121 
119 120 
119 121 
120 121 
